NAME: line_60_1
TYPE: TSP
COMMENT: line_60_1
DIMENSION: 60
EDGE_WEIGHT_TYPE: EUC_2D
NODE_COORD_SECTION
1 0.0 283.0
2 0.0 411.0
3 0.0 67.0
4 0.0 468.0
5 0.0 95.0
6 0.0 468.0
7 0.0 212.0
8 0.0 387.0
9 0.0 403.0
10 0.0 229.0
11 0.0 222.0
12 0.0 512.0
13 0.0 2.0
14 0.0 61.0
15 0.0 328.0
16 0.0 431.0
17 0.0 113.0
18 0.0 240.0
19 0.0 515.0
20 0.0 456.0
21 0.0 126.0
22 0.0 24.0
23 0.0 51.0
24 0.0 173.0
25 0.0 402.0
26 0.0 349.0
27 0.0 314.0
28 0.0 517.0
29 0.0 504.0
30 0.0 544.0
31 0.0 553.0
32 0.0 581.0
33 0.0 31.0
34 0.0 521.0
35 0.0 219.0
36 0.0 130.0
37 0.0 482.0
38 0.0 420.0
39 0.0 279.0
40 0.0 33.0
41 0.0 293.0
42 0.0 346.0
43 0.0 157.0
44 0.0 93.0
45 0.0 248.0
46 0.0 280.0
47 0.0 82.0
48 0.0 484.0
49 0.0 548.0
50 0.0 383.0
51 0.0 439.0
52 0.0 335.0
53 0.0 390.0
54 0.0 139.0
55 0.0 384.0
56 0.0 410.0
57 0.0 210.0
58 0.0 65.0
59 0.0 389.0
60 0.0 498.0
